2011514
1,47,4,48,2,27,45,17,9,58,15,8,68,35,53,37,51,39,62,36,28,31,22,52,14,44,57,33,18,10,50,59,16,63,20,65,13,54,12,42,61,3,21,24,32,56,40,5,60,23,49,19,29,25,30,41,64,11,66,26,67,7,43,34,55,46,38,6